# 1 amount of Vehicles
param nv :=
4 ;

# 2 amount of Orders
param no :=
7 ;

# 3 amount of locations
param nl :=
10 ;

# 4 amount of factories
param nf :=
4 ;

# 5 factory sets
set N_f_2[1] :=  6 ;
set N_f_2[2] :=  7 ;
set N_f_2[3] :=  8 10 ;
set N_f_2[4] :=  9 ;

# 6 factory stop capacities
param H :=
1 1
2 1
3 1
4 1 ;

# 7 pickup locations for each order
param L_pd :=
1 1
2 3
3 4
4 5
5 2
6 1
7 2 ;

# 8 delivery locations for each order
param L_dd :=
1 6
2 8
3 9
4 10
5 7
6 10
7 6 ;

# 9 location sets
set L_2[1] :=  1 6 ;
set L_2[2] :=  5 7 ;
set L_2[3] :=  2 ;
set L_2[4] :=  3 ;
set L_2[5] :=  4 ;
set L_2[6] :=  1 7 ;
set L_2[7] :=  5 ;
set L_2[8] :=  2 ;
set L_2[9] :=  3 ;
set L_2[10] :=  4 6 ;

# 10 order weights
param Q_kg_2 :=
1 479.80781472394534
2 1328.6248195747607
3 481.6886066802659
4 1664.997443306418
5 16589.259604053183
6 1208.3487989198509
7 7425.507899675232 ;

# 11 order volumes
param Q_vol_2 :=
1 4.031091491438757
2 3.083480959604089
3 4.3924052492786965
4 4.894862381306299
5 54.51374998545542
6 9.763736757454565
7 87.96592486783648 ;

# 12 Locations vehicle can visit
set N_v_2[1] := 1 3 4 5 8 9 10 ;
set N_v_2[2] := 1 3 4 5 8 9 10 ;
set N_v_2[3] := 1 2 3 4 5 6 7 8 9 10 ;
set N_v_2[4] := 1 2 3 4 5 6 7 8 9 10 ;

# 13 Orders vehicles can pick up
set N_vp_2[1] := 1 2 3 4 6 ;
set N_vp_2[2] := 1 2 3 4 6 ;
set N_vp_2[3] := 1 2 3 4 5 6 7 ;
set N_vp_2[4] := 1 2 3 4 5 6 7 ;

# 14 vehicle weight capacity
param K_kg :=
1 12000.0
2 18000.0
3 24000.0
4 24000.0 ;

# 15 vehicle volume capacity
param K_vol :=
1 55.0
2 71.0
3 102.0
4 102.0 ;

# 16 amount of distance intervals
param na :=
1 2
2 2
3 2
4 2 ;

# 17 amount of weight intervals
param nb :=
1 3
2 3
3 2
4 2 ;

# 18 Distance intervals
param B_2 :=
1 1 1500.0
1 2 9999999.0
2 1 1500.0
2 2 9999999.0
3 1 1500.0
3 2 9999999.0
4 1 1500.0
4 2 9999999.0 ;

# 19 Weight intervals
param Z_2 :=
1 1 700.0
1 2 3000.0
1 3 24000.0
2 1 700.0
2 2 3000.0
2 3 24000.0
3 1 1500.0
3 2 24000.0
3 3 . 
4 1 1500.0
4 2 24000.0
4 3 . ;

# 20 cost per kilometer
param C_km :=
1 1 1 0.08247985839843748
1 1 2 0.15701783512579273
1 1 3 0.3723393221028571
1 2 1 0.05498657226562501
1 2 2 0.10467855675052853
1 2 3 0.2482262147352381
2 1 1 0.09622650146484377
2 1 2 0.18318747431342491
2 1 3 0.43439587578666683
2 2 1 0.060485229492187494
2 2 2 0.11514641242558135
2 2 3 0.2730488362087619
3 1 1 0.1543265929222107
3 1 2 0.4964524294704762
3 1 3 . 
3 2 1 0.09645412057638168
3 2 2 0.3102827684190475
3 2 3 . 
4 1 1 0.1543265929222107
4 1 2 0.4964524294704762
4 1 3 . 
4 2 1 0.09645412057638168
4 2 2 0.3102827684190475
4 2 3 . ;

# 21 cost per kilo
param C_kg :=
1 1 1 0.0070495605468750035
1 1 2 0.0030595174524933127
1 1 3 8.114541859150757E-4
1 2 1 0.0028198242187500006
1 2 2 0.0012238069809973242
1 2 3 3.245816743660299E-4
2 1 1 0.0070495605468750035
2 1 2 0.0030595174524933127
2 1 3 8.114541859150757E-4
2 2 1 0.0028198242187500006
2 2 2 0.0012238069809973242
2 2 3 3.245816743660299E-4
3 1 1 0.004564315080642704
3 1 2 8.114541859150757E-4
3 1 3 . 
3 2 1 0.0018257260322570804
3 2 2 3.245816743660299E-4
3 2 3 . 
4 1 1 0.004564315080642704
4 1 2 8.114541859150757E-4
4 1 3 . 
4 2 1 0.0018257260322570804
4 2 2 3.245816743660299E-4
4 2 3 . ;

# 22 fixed costs
param C_fix :=
1 1 1 86.0625
1 1 2 202.5
1 1 3 764.94375
1 2 1 653.537109375
1 2 2 1537.734375
1 2 3 5808.7916015625
2 1 1 100.68095232000002
2 1 2 236.89635840000005
2 1 3 894.8759938560002
2 2 1 930.1870876292295
2 2 2 2188.6755003040694
2 2 3 8267.721702398621
3 1 1 195.31660031999994
3 1 2 1093.0495669759996
3 1 3 . 
3 2 1 2317.1726648638028
3 2 2 12967.584802256317
3 2 3 . 
4 1 1 195.31660031999994
4 1 2 1093.0495669759996
4 1 3 . 
4 2 1 2317.1726648638028
4 2 2 12967.584802256317
4 2 3 . ;

# 23 stopping costs
param C_stop_2 :=
1 1 20.0
1 2 23.0
1 3 25.0
1 4 28.0
1 5 29.0
1 6 21.0
1 7 28.0
1 8 25.0
1 9 22.0
1 10 29.0
2 1 30.0
2 2 34.5
2 3 37.5
2 4 42.0
2 5 43.5
2 6 31.5
2 7 42.0
2 8 37.5
2 9 33.0
2 10 43.5
3 1 40.0
3 2 46.0
3 3 50.0
3 4 56.0
3 5 58.0
3 6 42.0
3 7 56.0
3 8 50.0
3 9 44.0
3 10 58.0
4 1 40.0
4 2 46.0
4 3 50.0
4 4 56.0
4 5 58.0
4 6 42.0
4 7 56.0
4 8 50.0
4 9 44.0
4 10 58.0 ;

# 24 cost of no transport
param C_2 :=
1 37650.80214065878
2 48584.40884824582
3 42849.79350625016
4 46246.42165354971
5 240530.03919475578
6 53608.7552593032
7 192711.6139517096 ;

# 25 timewindow amounts at location
param pi_2 :=
1 3
2 4
3 4
4 3
5 4
6 3
7 3
8 3
9 3
10 4 ;

# 26 timewindow lower bounds
param T_l_2 :=
1 1 60.0
1 2 1500.0
1 3 2940.0
1 4 . 
2 1 60.0
2 2 420.0
2 3 1500.0
2 4 1860.0
3 1 0.0
3 2 300.0
3 3 1440.0
3 4 1740.0
4 1 0.0
4 2 300.0
4 3 1440.0
4 4 . 
5 1 0.0
5 2 300.0
5 3 1440.0
5 4 1800.0
6 1 60.0
6 2 480.0
6 3 1500.0
6 4 . 
7 1 0.0
7 2 300.0
7 3 1440.0
7 4 . 
8 1 0.0
8 2 300.0
8 3 1440.0
8 4 . 
9 1 120.0
9 2 480.0
9 3 1560.0
9 4 . 
10 1 0.0
10 2 300.0
10 3 1440.0
10 4 1740.0 ;

# 27 timewindow upper bounds
param T_u_2 :=
1 1 300.0
1 2 1740.0
1 3 3180.0
1 4 . 
2 1 360.0
2 2 600.0
2 3 1800.0
2 4 2040.0
3 1 180.0
3 2 480.0
3 3 1620.0
3 4 1920.0
4 1 240.0
4 2 600.0
4 3 1680.0
4 4 . 
5 1 240.0
5 2 540.0
5 3 1680.0
5 4 2040.0
6 1 360.0
6 2 720.0
6 3 1800.0
6 4 . 
7 1 180.0
7 2 600.0
7 3 1620.0
7 4 . 
8 1 180.0
8 2 600.0
8 3 1620.0
8 4 . 
9 1 420.0
9 2 720.0
9 3 1860.0
9 4 . 
10 1 240.0
10 2 480.0
10 3 1680.0
10 4 1920.0 ;

# 28 Travel time
param T_2 :=
1 1 1 . 
1 1 2 . 
1 1 3 301.18112855555955
1 1 4 172.8757978701733
1 1 5 316.5985719991167
1 1 6 . 
1 1 7 . 
1 1 8 250.11481425808662
1 1 9 121.01249913206499
1 1 10 214.02550854416882
1 2 1 . 
1 2 2 . 
1 2 3 . 
1 2 4 . 
1 2 5 . 
1 2 6 . 
1 2 7 . 
1 2 8 . 
1 2 9 . 
1 2 10 . 
1 3 1 301.18112855555955
1 3 2 . 
1 3 3 . 
1 3 4 170.5308843480967
1 3 5 228.1438766651673
1 3 6 . 
1 3 7 . 
1 3 8 271.57799488156866
1 3 9 291.3803356439827
1 3 10 231.0203191801254
1 4 1 172.8757978701733
1 4 2 . 
1 4 3 170.5308843480967
1 4 4 . 
1 4 5 326.7472280724739
1 4 6 . 
1 4 7 . 
1 4 8 286.5086391476568
1 4 9 249.3417031694801
1 4 10 244.50488064247142
1 5 1 316.5985719991167
1 5 2 . 
1 5 3 228.1438766651673
1 5 4 326.7472280724739
1 5 5 . 
1 5 6 . 
1 5 7 . 
1 5 8 100.9647356180985
1 5 9 287.66171166194397
1 5 10 94.35974731965386
1 6 1 . 
1 6 2 . 
1 6 3 . 
1 6 4 . 
1 6 5 . 
1 6 6 . 
1 6 7 . 
1 6 8 . 
1 6 9 . 
1 6 10 . 
1 7 1 . 
1 7 2 . 
1 7 3 . 
1 7 4 . 
1 7 5 . 
1 7 6 . 
1 7 7 . 
1 7 8 . 
1 7 9 . 
1 7 10 . 
1 8 1 250.11481425808662
1 8 2 . 
1 8 3 271.57799488156866
1 8 4 286.5086391476568
1 8 5 100.9647356180985
1 8 6 . 
1 8 7 . 
1 8 8 . 
1 8 9 234.8195097251724
1 8 10 1.118033988749895
1 9 1 121.01249913206499
1 9 2 . 
1 9 3 291.3803356439827
1 9 4 249.3417031694801
1 9 5 287.66171166194397
1 9 6 . 
1 9 7 . 
1 9 8 234.8195097251724
1 9 9 . 
1 9 10 242.96642535069404
1 10 1 214.02550854416882
1 10 2 . 
1 10 3 231.0203191801254
1 10 4 244.50488064247142
1 10 5 94.35974731965386
1 10 6 . 
1 10 7 . 
1 10 8 1.118033988749895
1 10 9 242.96642535069404
1 10 10 . 
2 1 1 . 
2 1 2 . 
2 1 3 308.7106567694485
2 1 4 177.19769281692763
2 1 5 324.5135362990946
2 1 6 . 
2 1 7 . 
2 1 8 256.36768461453875
2 1 9 124.0378116103666
2 1 10 219.37614625777303
2 2 1 . 
2 2 2 . 
2 2 3 . 
2 2 4 . 
2 2 5 . 
2 2 6 . 
2 2 7 . 
2 2 8 . 
2 2 9 . 
2 2 10 . 
2 3 1 308.7106567694485
2 3 2 . 
2 3 3 . 
2 3 4 174.7941564567991
2 3 5 233.84747358179646
2 3 6 . 
2 3 7 . 
2 3 8 278.36744475360786
2 3 9 298.66484403508224
2 3 10 236.79582715962852
2 4 1 177.19769281692763
2 4 2 . 
2 4 3 174.7941564567991
2 4 4 . 
2 4 5 334.9159087742857
2 4 6 . 
2 4 7 . 
2 4 8 293.6713551263482
2 4 9 255.57524574871707
2 4 10 250.6175026585332
2 5 1 324.5135362990946
2 5 2 . 
2 5 3 233.84747358179646
2 5 4 334.9159087742857
2 5 5 . 
2 5 6 . 
2 5 7 . 
2 5 8 103.48885400855096
2 5 9 294.8532544534925
2 5 10 96.7187410026452
2 6 1 . 
2 6 2 . 
2 6 3 . 
2 6 4 . 
2 6 5 . 
2 6 6 . 
2 6 7 . 
2 6 8 . 
2 6 9 . 
2 6 10 . 
2 7 1 . 
2 7 2 . 
2 7 3 . 
2 7 4 . 
2 7 5 . 
2 7 6 . 
2 7 7 . 
2 7 8 . 
2 7 9 . 
2 7 10 . 
2 8 1 256.36768461453875
2 8 2 . 
2 8 3 278.36744475360786
2 8 4 293.6713551263482
2 8 5 103.48885400855096
2 8 6 . 
2 8 7 . 
2 8 8 . 
2 8 9 240.6899974683017
2 8 10 1.1459848384686422
2 9 1 124.0378116103666
2 9 2 . 
2 9 3 298.66484403508224
2 9 4 255.57524574871707
2 9 5 294.8532544534925
2 9 6 . 
2 9 7 . 
2 9 8 240.6899974683017
2 9 9 . 
2 9 10 249.04058598446136
2 10 1 219.37614625777303
2 10 2 . 
2 10 3 236.79582715962852
2 10 4 250.6175026585332
2 10 5 96.7187410026452
2 10 6 . 
2 10 7 . 
2 10 8 1.1459848384686422
2 10 9 249.04058598446136
2 10 10 . 
3 1 1 . 
3 1 2 344.5082725005714
3 1 3 316.24018498333754
3 1 4 181.51958776368198
3 1 5 332.42850059907255
3 1 6 211.07856878466
3 1 7 299.288629394016
3 1 8 262.62055497099095
3 1 9 127.06312408866825
3 1 10 224.72678397137727
3 2 1 344.5082725005714
3 2 2 . 
3 2 3 76.41175416822679
3 2 4 250.47285703352148
3 2 5 137.10770811327777
3 2 6 252.88567652461344
3 2 7 2.1646304534492713
3 2 8 218.78976861936863
3 2 9 376.18583971248626
3 2 10 210.07816033297513
3 3 1 316.24018498333754
3 3 2 76.41175416822679
3 3 3 . 
3 3 4 179.05742856550154
3 3 5 239.5510704984257
3 3 6 157.34627905082974
3 3 7 65.38899020361379
3 3 8 285.1568946256471
3 3 9 305.9493524261818
3 3 10 242.5713351391317
3 4 1 181.51958776368198
3 4 2 250.47285703352148
3 4 3 179.05742856550154
3 4 4 . 
3 4 5 343.0845894760976
3 4 6 0.7424621202458749
3 4 7 200.35710328452288
3 4 8 300.8340711050397
3 4 9 261.8087883279541
3 4 10 256.730124674595
3 5 1 332.42850059907255
3 5 2 137.10770811327777
3 5 3 239.5510704984257
3 5 4 343.0845894760976
3 5 5 . 
3 5 6 273.11398331881156
3 5 7 170.04041968932816
3 5 8 106.01297239900343
3 5 9 302.0447972450412
3 5 10 99.07773468563656
3 6 1 211.07856878466
3 6 2 252.88567652461344
3 6 3 157.34627905082974
3 6 4 0.7424621202458749
3 6 5 273.11398331881156
3 6 6 . 
3 6 7 190.1707701963195
3 6 8 277.20511358245983
3 6 9 294.3541696849889
3 6 10 281.40228259790837
3 7 1 299.288629394016
3 7 2 2.1646304534492713
3 7 3 65.38899020361379
3 7 4 200.35710328452288
3 7 5 170.04041968932816
3 7 6 190.1707701963195
3 7 7 . 
3 7 8 204.9520908218783
3 7 9 338.4456393459313
3 7 10 238.24639128760543
3 8 1 262.62055497099095
3 8 2 218.78976861936863
3 8 3 285.1568946256471
3 8 4 300.8340711050397
3 8 5 106.01297239900343
3 8 6 277.20511358245983
3 8 7 204.9520908218783
3 8 8 . 
3 8 9 246.56048521143103
3 8 10 1.1739356881873897
3 9 1 127.06312408866825
3 9 2 376.18583971248626
3 9 3 305.9493524261818
3 9 4 261.8087883279541
3 9 5 302.0447972450412
3 9 6 294.3541696849889
3 9 7 338.4456393459313
3 9 8 246.56048521143103
3 9 9 . 
3 9 10 255.11474661822876
3 10 1 224.72678397137727
3 10 2 210.07816033297513
3 10 3 242.5713351391317
3 10 4 256.730124674595
3 10 5 99.07773468563656
3 10 6 281.40228259790837
3 10 7 238.24639128760543
3 10 8 1.1739356881873897
3 10 9 255.11474661822876
3 10 10 . 
4 1 1 . 
4 1 2 344.5082725005714
4 1 3 316.24018498333754
4 1 4 181.51958776368198
4 1 5 332.42850059907255
4 1 6 211.07856878466
4 1 7 299.288629394016
4 1 8 262.62055497099095
4 1 9 127.06312408866825
4 1 10 224.72678397137727
4 2 1 344.5082725005714
4 2 2 . 
4 2 3 76.41175416822679
4 2 4 250.47285703352148
4 2 5 137.10770811327777
4 2 6 252.88567652461344
4 2 7 2.1646304534492713
4 2 8 218.78976861936863
4 2 9 376.18583971248626
4 2 10 210.07816033297513
4 3 1 316.24018498333754
4 3 2 76.41175416822679
4 3 3 . 
4 3 4 179.05742856550154
4 3 5 239.5510704984257
4 3 6 157.34627905082974
4 3 7 65.38899020361379
4 3 8 285.1568946256471
4 3 9 305.9493524261818
4 3 10 242.5713351391317
4 4 1 181.51958776368198
4 4 2 250.47285703352148
4 4 3 179.05742856550154
4 4 4 . 
4 4 5 343.0845894760976
4 4 6 0.7424621202458749
4 4 7 200.35710328452288
4 4 8 300.8340711050397
4 4 9 261.8087883279541
4 4 10 256.730124674595
4 5 1 332.42850059907255
4 5 2 137.10770811327777
4 5 3 239.5510704984257
4 5 4 343.0845894760976
4 5 5 . 
4 5 6 273.11398331881156
4 5 7 170.04041968932816
4 5 8 106.01297239900343
4 5 9 302.0447972450412
4 5 10 99.07773468563656
4 6 1 211.07856878466
4 6 2 252.88567652461344
4 6 3 157.34627905082974
4 6 4 0.7424621202458749
4 6 5 273.11398331881156
4 6 6 . 
4 6 7 190.1707701963195
4 6 8 277.20511358245983
4 6 9 294.3541696849889
4 6 10 281.40228259790837
4 7 1 299.288629394016
4 7 2 2.1646304534492713
4 7 3 65.38899020361379
4 7 4 200.35710328452288
4 7 5 170.04041968932816
4 7 6 190.1707701963195
4 7 7 . 
4 7 8 204.9520908218783
4 7 9 338.4456393459313
4 7 10 238.24639128760543
4 8 1 262.62055497099095
4 8 2 218.78976861936863
4 8 3 285.1568946256471
4 8 4 300.8340711050397
4 8 5 106.01297239900343
4 8 6 277.20511358245983
4 8 7 204.9520908218783
4 8 8 . 
4 8 9 246.56048521143103
4 8 10 1.1739356881873897
4 9 1 127.06312408866825
4 9 2 376.18583971248626
4 9 3 305.9493524261818
4 9 4 261.8087883279541
4 9 5 302.0447972450412
4 9 6 294.3541696849889
4 9 7 338.4456393459313
4 9 8 246.56048521143103
4 9 9 . 
4 9 10 255.11474661822876
4 10 1 224.72678397137727
4 10 2 210.07816033297513
4 10 3 242.5713351391317
4 10 4 256.730124674595
4 10 5 99.07773468563656
4 10 6 281.40228259790837
4 10 7 238.24639128760543
4 10 8 1.1739356881873897
4 10 9 255.11474661822876
4 10 10 . ;

# 29 Travel distance
param D_2 :=
1 1 . 
1 2 526.2062333344219
1 3 476.36225711111916
1 4 293.7515957403466
1 5 497.19714399823334
1 6 294.0544167326857
1 7 530.0735797981257
1 8 394.2296285161733
1 9 180.02499826412998
1 10 392.05101708833763
2 1 526.2062333344219
2 2 . 
2 3 105.54619841567009
2 4 351.0911562543266
2 5 257.1575392633862
2 6 349.6870029040256
2 7 4.123105625617661
2 8 366.742416417845
2 9 604.5444565952118
2 10 366.1488768247146
3 1 476.36225711111916
3 2 105.54619841567009
3 3 . 
3 4 259.0617686961934
3 5 330.2877533303347
3 6 257.7071981920567
3 7 106.55045753069294
3 8 407.15598976313737
3 9 582.7606712879654
3 10 406.04063836025085
4 1 293.7515957403466
4 2 351.0911562543266
4 3 259.0617686961934
4 4 . 
4 5 473.4944561449479
4 6 1.4142135623730951
4 7 353.6325776848055
4 8 463.0172782953137
4 9 454.6834063389602
4 10 461.00976128494284
5 1 497.19714399823334
5 2 257.1575392633862
5 3 330.2877533303347
5 4 473.4944561449479
5 5 . 
5 6 472.2171110834507
5 7 259.88651369395836
5 8 155.92947123619703
5 9 493.323423323888
5 10 156.71949463930773
6 1 294.0544167326857
6 2 349.6870029040256
6 3 257.7071981920567
6 4 1.4142135623730951
6 5 472.2171110834507
6 6 . 
6 7 352.23003846918
6 8 462.0097401570664
6 9 454.67460892378847
6 10 460.0043478055398
7 1 530.0735797981257
7 2 4.123105625617661
7 3 106.55045753069294
7 4 353.6325776848055
7 5 259.88651369395836
7 6 352.23003846918
7 7 . 
7 8 370.3849348988158
7 9 608.6583606589168
7 10 369.80265007162944
8 1 394.2296285161733
8 2 366.742416417845
8 3 407.15598976313737
8 4 463.0172782953137
8 5 155.92947123619703
8 6 462.0097401570664
8 7 370.3849348988158
8 8 . 
8 9 351.63901945034485
8 10 2.23606797749979
9 1 180.02499826412998
9 2 604.5444565952118
9 3 582.7606712879654
9 4 454.6834063389602
9 5 493.323423323888
9 6 454.67460892378847
9 7 608.6583606589168
9 8 351.63901945034485
9 9 . 
9 10 349.93285070138813
10 1 392.05101708833763
10 2 366.1488768247146
10 3 406.04063836025085
10 4 461.00976128494284
10 5 156.71949463930773
10 6 460.0043478055398
10 7 369.80265007162944
10 8 2.23606797749979
10 9 349.93285070138813
10 10 . ;

